c Random generated cnf formula, satisfiable: false
p cnf 10 50
-7 10 -3 0
3 10 -4 0
-4 6 -9 0
-7 -4 8 0
1 10 7 0
4 9 8 0
-7 9 10 0
7 6 1 0
7 3 10 0
1 -4 -10 0
4 -2 9 0
7 -2 3 0
-10 -8 9 0
8 -9 -5 0
-5 -4 7 0
9 7 6 0
-1 -4 -5 0
10 -1 -8 0
-7 3 1 0
-4 -9 -1 0
9 3 2 0
-2 6 8 0
1 9 -2 0
-6 -3 -9 0
8 5 -9 0
1 -5 9 0
-1 8 -3 0
2 -7 6 0
-5 3 8 0
8 4 5 0
3 -6 -8 0
-10 7 -9 0
7 -1 -3 0
4 3 -1 0
8 -1 6 0
8 -2 7 0
10 -4 3 0
9 -1 -4 0
10 9 -8 0
-3 -8 6 0
-4 -10 6 0
7 1 6 0
-10 -2 -1 0
9 -5 -6 0
-1 -5 -3 0
-9 8 5 0
9 -4 8 0
9 10 3 0
4 -2 -8 0
-4 -9 -5 0
